c description: Random 3-CNF over 18 variables and 77 clauses
c generator: CNFgen (0.9.2)
c copyright: (C) 2012-2022 Massimo Lauria <massimo.lauria@uniroma1.it>
c url: https://massimolauria.net/cnfgen
c command line: cnfgen --output CNF_4.28/18_bit_77_303.cnf randkcnf 3 18 77
c
p cnf 18 77
6 -8 -14 0
1 6 16 0
1 -6 -16 0
8 9 11 0
-5 -12 17 0
6 10 -11 0
-2 -3 16 0
12 13 -15 0
1 8 18 0
4 14 17 0
-6 8 -11 0
4 10 -11 0
-7 10 16 0
-1 9 -12 0
-7 13 16 0
-5 11 15 0
-13 -14 -15 0
-2 -13 17 0
-5 -14 17 0
1 10 -12 0
-4 11 13 0
4 5 13 0
2 -5 -9 0
6 13 -16 0
-7 8 15 0
3 -7 -12 0
-3 5 -17 0
2 6 -15 0
-2 5 -6 0
7 -12 -16 0
1 -3 15 0
-9 -11 15 0
1 -7 -16 0
-10 16 -18 0
-1 -8 9 0
5 -12 -16 0
11 -12 -16 0
-5 -7 16 0
-12 14 15 0
-1 5 -17 0
7 15 18 0
2 9 14 0
-5 -13 -14 0
-2 12 -17 0
3 -17 18 0
-4 8 10 0
13 15 16 0
-2 -6 11 0
10 -11 17 0
7 9 15 0
-7 -8 -14 0
-3 -5 -7 0
6 12 16 0
-2 -4 10 0
3 -12 -15 0
3 12 -18 0
-3 -5 -17 0
-5 11 14 0
8 -13 15 0
3 12 -14 0
-2 4 18 0
6 -11 13 0
-3 11 13 0
7 -9 10 0
-11 -16 -18 0
4 -14 18 0
3 -4 -18 0
-5 -7 -9 0
8 -16 17 0
8 -12 -13 0
-1 2 -15 0
2 8 13 0
4 -10 -17 0
-3 -7 18 0
4 10 17 0
3 -12 16 0
3 -16 -18 0
